
(set-logic ALL) 

(declare-datatype MyList ((Nil) (Cons (head Real) (tail MyList)) )) 
(declare-fun l0 () MyList) 
(declare-fun l1 () MyList) 
(declare-fun l2 () MyList) 
(declare-fun l3 () MyList) 
(declare-fun i0 () Real) 
(declare-fun i1 () Real) 
(assert (is-Cons Nil) )
(assert (is-Nil l3) )
(assert (is-Nil Nil) )
(assert (or (= l1 Nil) (= l2 Nil) (= l3 l2) (= l0 Nil)) )
(assert (and (= l0 Nil) (= l2 l3) (= l0 l1) (= l3 l1)) )
(assert (or (= l2 Nil) (= l3 Nil) (is-Cons Nil) (= l0 Nil)) )
(assert (and (= l2 Nil) (= l2 Nil) (= l3 l3) (is-Cons Nil)) )
(assert (and (= l3 l0) (is-Nil l2)) )
(check-sat)
